z3_origin/1599121899684865000.txt
sat
(:max-memory          19.02
 :memory              18.41
 :nlsat-arith-var     2
 :nlsat-atoms         20
 :nlsat-bool-var      5
 :nlsat-clauses       7
 :nlsat-conflicts     3
 :nlsat-decisions     1
 :nlsat-propagations  27
 :nlsat-stages        6
 :num-allocs          241704
 :rlimit-count        23056
 :solve-eqs-elim-vars 2
 :solve-eqs-steps     18
 :time                0.04
 :total-time          0.05)
